0000000000000000
0111111111111000
0001111111111000
0000000001111100
0000000001111100
0000000001111100
0000000000111100
0000000000111100
0000000000111100
0000000001111100
0000000001111100
0001111111111100
0000111111111111
0001111111111111
0000000000000000
0000000000000000